webassembly/ejemplos_dzn/folder7_json_92.dzn
TERM = { '.', 's(2)', 'in_1', 'local_0', 'in_2', 'in_3', 'in_4', 's(1)', 's(0)', 'in_5', 's(3)', 'in_0'};
null = '.';
s = 7;
n = 11;
ndeps = 2;
max_registers_sz = 4;
NR = 1;
registers = [|'local_0', 'in_5'|];
dependencies = [|'i32.load_0', 'i32.store_5', |'i32.load8_u_1', 'i32.store_5'|];
GET_ENUM = { GET1, GET2, GET3, GET4, GET5};
SET_ENUM = { SET1, SET2, SET3, SET4, SET5};
TEE_ENUM = { TEE1, TEE2, TEE3, TEE4, TEE5};
N = 5;
OP = { 'i32.load_0', 'i32.load8_u_1', 'i32.sub_0', 'i32.add_0', 'i32.store_5' };
in_ops = [1, 1, 2, 2, 2 ];
out_ops = [1, 1, 1, 1, 0 ];
in1 = ['in_0', 's(0)', 'in_1', 's(2)', 's(3)' ];
in2 = ['.', '.', 'in_2', 'in_3', 'in_4' ];
in3 = ['.', '.', '.', '.', '.' ];
out1 = ['s(0)', 's(1)', 's(2)', 's(3)', '.' ];
out2 = ['.', '.', '.', '.', '.' ];
out3 = ['.', '.', '.', '.', '.' ];
comm = [false, false, false, true, false ];
gas = [1, 1, 1, 1, 1 ];
sz = [1, 1, 1, 1, 1 ];
stor = [false, false, false, false, true ];
lb = [ 1, 1, 1, 1, 1 ];
ub = [ 7, 7, 7, 7, 7 ];
startstack = [ 'in_0', 'in_1', 'in_2', 'in_3', 'in_4', 'in_5', null, null, null, null, null ];
endstack = [ 'in_5', null, null, null, null, null, null, null, null, null, null ];
