webassembly/ejemplos_results/folder7_json_92.txt
value = 7;
fgas = [1, 1, 2, 1, 1, 1, 1];
fsize = [1, 1, 1, 1, 1, 1, 1];
states = 
[|   in_0, in_1, in_2, in_3, in_4, in_5, '.',  '.',  '.',  '.',  '.'
 | 's(0)', in_0, in_2, in_3, in_4, in_5, '.',  '.',  '.',  '.',  '.'
 | 's(1)', in_1, in_2, in_3, in_4, in_5, '.',  '.',  '.',  '.',  '.'
 |   in_1, in_2, in_3, in_4, in_5,  '.', '.',  '.',  '.',  '.',  '.'
 | 's(2)', in_3, in_4, in_5,  '.',  '.', '.',  '.',  '.',  '.', in_0
 | 's(3)', in_4, in_5,  '.',  '.',  '.', '.',  '.',  '.', in_0, in_0
 |   in_5,  '.',  '.',  '.',  '.',  '.', '.', in_0, in_0, in_0,  '.'
 |   in_5,  '.',  '.',  '.',  '.',  '.', '.',  '.',  '.',  '.',  '.'
 |];
register_states = 
[| local_0, '.', '.', '.', '.'
 | local_0, '.', '.', '.', '.'
 | local_0, '.', '.', '.', '.'
 | local_0, '.', '.', '.', '.'
 | local_0, '.', '.', '.', '.'
 | local_0, '.', '.', '.', '.'
 | local_0, '.', '.', '.', '.'
 |    in_5, '.', '.', '.', '.'
 |];
program = [O('i32.load_0'), O('i32.load8_u_1'), POP, O('i32.sub_0'), O('i32.add_0'), O('i32.store_5'), TEE(TEE1)];
% time elapsed: 0.09 s
----------
==========
% time elapsed: 0.09 s
% [value > 6]
